NAME : amtsp
TYPE : ATSP
DIMENSION : 11
EDGE_WEIGHT_TYPE : EXPLICIT
EDGE_WEIGHT_FORMAT : FULL_MATRIX
EDGE_WEIGHT_SECTION
100000 -100000 100000 100000 100000 100000 100000 100000 100000 100000 100000 
100000 100000 286 1634 1634 2149 1926 2101 2786 2675 2817 
0 0 100000 457 696 2461 2314 2474 3174 3064 3165 
0 0 457 100000 499 2300 2455 2851 3450 3156 3050 
0 0 696 499 100000 500 702 2388 2851 2455 2300 
0 0 2461 2300 500 100000 466 2200 2388 702 500 
0 0 2314 2455 702 466 100000 466 702 500 702 
0 0 2474 2851 2388 2200 466 100000 500 702 2388 
0 0 3174 3450 2851 2388 702 500 100000 466 2200 
0 0 3064 3156 2455 702 500 702 466 100000 466 
0 0 3165 3050 2300 500 702 2388 2200 466 100000 
